p cnf 100 431
1 0
25 0
6 0
46 0
15 0
43 0
20 0
84 0
-1 -2 0
-1 -3 0
-1 -4 0
-2 -3 0
-2 -4 0
-3 -4 0
-5 -6 0
-5 -7 0
-5 -8 0
-6 -7 0
-6 -8 0
-7 -8 0
-9 -10 0
-9 -11 0
-9 -12 0
-10 -11 0
-10 -12 0
-11 -12 0
-13 -14 0
-13 -15 0
-13 -16 0
-14 -15 0
-14 -16 0
-15 -16 0
-17 -18 0
-17 -19 0
-17 -20 0
-18 -19 0
-18 -20 0
-19 -20 0
-21 -22 0
-21 -23 0
-21 -24 0
-22 -23 0
-22 -24 0
-23 -24 0
-25 -26 0
-25 -27 0
-25 -28 0
-26 -27 0
-26 -28 0
-27 -28 0
-29 -30 0
-29 -31 0
-29 -32 0
-30 -31 0
-30 -32 0
-31 -32 0
-33 -34 0
-33 -35 0
-33 -36 0
-34 -35 0
-34 -36 0
-35 -36 0
-37 -38 0
-37 -39 0
-37 -40 0
-38 -39 0
-38 -40 0
-39 -40 0
-41 -42 0
-41 -43 0
-41 -44 0
-42 -43 0
-42 -44 0
-43 -44 0
-45 -46 0
-45 -47 0
-45 -48 0
-46 -47 0
-46 -48 0
-47 -48 0
-49 -50 0
-49 -51 0
-49 -52 0
-50 -51 0
-50 -52 0
-51 -52 0
-53 -54 0
-53 -55 0
-53 -56 0
-54 -55 0
-54 -56 0
-55 -56 0
-57 -58 0
-57 -59 0
-57 -60 0
-58 -59 0
-58 -60 0
-59 -60 0
-61 -62 0
-61 -63 0
-61 -64 0
-62 -63 0
-62 -64 0
-63 -64 0
-65 -66 0
-65 -67 0
-65 -68 0
-66 -67 0
-66 -68 0
-67 -68 0
-69 -70 0
-69 -71 0
-69 -72 0
-70 -71 0
-70 -72 0
-71 -72 0
-73 -74 0
-73 -75 0
-73 -76 0
-74 -75 0
-74 -76 0
-75 -76 0
-77 -78 0
-77 -79 0
-77 -80 0
-78 -79 0
-78 -80 0
-79 -80 0
-81 -82 0
-81 -83 0
-81 -84 0
-82 -83 0
-82 -84 0
-83 -84 0
-85 -86 0
-85 -87 0
-85 -88 0
-86 -87 0
-86 -88 0
-87 -88 0
-89 -90 0
-89 -91 0
-89 -92 0
-90 -91 0
-90 -92 0
-91 -92 0
-93 -94 0
-93 -95 0
-93 -96 0
-94 -95 0
-94 -96 0
-95 -96 0
-97 -98 0
-97 -99 0
-97 -100 0
-98 -99 0
-98 -100 0
-99 -100 0
1 2 3 4 0
5 6 7 8 0
9 10 11 12 0
13 14 15 16 0
17 18 19 20 0
21 22 23 24 0
25 26 27 28 0
29 30 31 32 0
33 34 35 36 0
37 38 39 40 0
41 42 43 44 0
45 46 47 48 0
49 50 51 52 0
53 54 55 56 0
57 58 59 60 0
61 62 63 64 0
65 66 67 68 0
69 70 71 72 0
73 74 75 76 0
77 78 79 80 0
81 82 83 84 0
85 86 87 88 0
89 90 91 92 0
93 94 95 96 0
97 98 99 100 0
-1 5 21 0
-5 -21 0
-25 29 45 21 5 0
-29 -45 0
-29 -21 0
-29 -5 0
-45 -21 0
-45 -5 0
-21 -5 0
-6 10 26 2 0
-10 -26 0
-10 -2 0
-26 -2 0
-46 50 66 42 26 0
-50 -66 0
-50 -42 0
-50 -26 0
-66 -42 0
-66 -26 0
-42 -26 0
-15 19 35 11 0
-19 -35 0
-19 -11 0
-35 -11 0
-43 47 63 23 0
-47 -63 0
-47 -23 0
-63 -23 0
-20 40 16 0
-40 -16 0
-84 88 64 0
-88 -64 0
-9 13 29 5 0
-13 -29 -5 0
-10 14 30 6 0
-14 -30 -6 0
-11 15 31 7 0
-15 -31 -7 0
-12 16 32 8 0
-16 -32 -8 0
-21 25 41 1 0
-25 -41 -1 0
-22 26 42 2 0
-26 -42 -2 0
-23 27 43 3 0
-27 -43 -3 0
-24 28 44 4 0
-28 -44 -4 0
-29 33 49 25 9 0
-33 -49 -25 0
-33 -49 -9 0
-33 -25 -9 0
-49 -25 -9 0
-30 34 50 26 10 0
-34 -50 -26 0
-34 -50 -10 0
-34 -26 -10 0
-50 -26 -10 0
-31 35 51 27 11 0
-35 -51 -27 0
-35 -51 -11 0
-35 -27 -11 0
-51 -27 -11 0
-32 36 52 28 12 0
-36 -52 -28 0
-36 -52 -12 0
-36 -28 -12 0
-52 -28 -12 0
-33 37 53 29 13 0
-37 -53 -29 0
-37 -53 -13 0
-37 -29 -13 0
-53 -29 -13 0
-34 38 54 30 14 0
-38 -54 -30 0
-38 -54 -14 0
-38 -30 -14 0
-54 -30 -14 0
-35 39 55 31 15 0
-39 -55 -31 0
-39 -55 -15 0
-39 -31 -15 0
-55 -31 -15 0
-36 40 56 32 16 0
-40 -56 -32 0
-40 -56 -16 0
-40 -32 -16 0
-56 -32 -16 0
-37 57 33 17 0
-57 -33 -17 0
-38 58 34 18 0
-58 -34 -18 0
-39 59 35 19 0
-59 -35 -19 0
-40 60 36 20 0
-60 -36 -20 0
-49 53 69 45 29 0
-53 -69 -45 0
-53 -69 -29 0
-53 -45 -29 0
-69 -45 -29 0
-50 54 70 46 30 0
-54 -70 -46 0
-54 -70 -30 0
-54 -46 -30 0
-70 -46 -30 0
-51 55 71 47 31 0
-55 -71 -47 0
-55 -71 -31 0
-55 -47 -31 0
-71 -47 -31 0
-52 56 72 48 32 0
-56 -72 -48 0
-56 -72 -32 0
-56 -48 -32 0
-72 -48 -32 0
-53 57 73 49 33 0
-57 -73 -49 0
-57 -73 -33 0
-57 -49 -33 0
-73 -49 -33 0
-54 58 74 50 34 0
-58 -74 -50 0
-58 -74 -34 0
-58 -50 -34 0
-74 -50 -34 0
-55 59 75 51 35 0
-59 -75 -51 0
-59 -75 -35 0
-59 -51 -35 0
-75 -51 -35 0
-56 60 76 52 36 0
-60 -76 -52 0
-60 -76 -36 0
-60 -52 -36 0
-76 -52 -36 0
-57 77 53 37 0
-77 -53 -37 0
-58 78 54 38 0
-78 -54 -38 0
-59 79 55 39 0
-79 -55 -39 0
-60 80 56 40 0
-80 -56 -40 0
-61 65 81 41 0
-65 -81 -41 0
-62 66 82 42 0
-66 -82 -42 0
-63 67 83 43 0
-67 -83 -43 0
-64 68 84 44 0
-68 -84 -44 0
-65 69 85 61 45 0
-69 -85 -61 0
-69 -85 -45 0
-69 -61 -45 0
-85 -61 -45 0
-66 70 86 62 46 0
-70 -86 -62 0
-70 -86 -46 0
-70 -62 -46 0
-86 -62 -46 0
-67 71 87 63 47 0
-71 -87 -63 0
-71 -87 -47 0
-71 -63 -47 0
-87 -63 -47 0
-68 72 88 64 48 0
-72 -88 -64 0
-72 -88 -48 0
-72 -64 -48 0
-88 -64 -48 0
-69 73 89 65 49 0
-73 -89 -65 0
-73 -89 -49 0
-73 -65 -49 0
-89 -65 -49 0
-70 74 90 66 50 0
-74 -90 -66 0
-74 -90 -50 0
-74 -66 -50 0
-90 -66 -50 0
-71 75 91 67 51 0
-75 -91 -67 0
-75 -91 -51 0
-75 -67 -51 0
-91 -67 -51 0
-72 76 92 68 52 0
-76 -92 -68 0
-76 -92 -52 0
-76 -68 -52 0
-92 -68 -52 0
-73 77 93 69 53 0
-77 -93 -69 0
-77 -93 -53 0
-77 -69 -53 0
-93 -69 -53 0
-74 78 94 70 54 0
-78 -94 -70 0
-78 -94 -54 0
-78 -70 -54 0
-94 -70 -54 0
-75 79 95 71 55 0
-79 -95 -71 0
-79 -95 -55 0
-79 -71 -55 0
-95 -71 -55 0
-76 80 96 72 56 0
-80 -96 -72 0
-80 -96 -56 0
-80 -72 -56 0
-96 -72 -56 0
-77 97 73 57 0
-97 -73 -57 0
-78 98 74 58 0
-98 -74 -58 0
-79 99 75 59 0
-99 -75 -59 0
-80 100 76 60 0
-100 -76 -60 0
-85 89 81 65 0
-89 -81 -65 0
-86 90 82 66 0
-90 -82 -66 0
-87 91 83 67 0
-91 -83 -67 0
-88 92 84 68 0
-92 -84 -68 0
-89 93 85 69 0
-93 -85 -69 0
-90 94 86 70 0
-94 -86 -70 0
-91 95 87 71 0
-95 -87 -71 0
-92 96 88 72 0
-96 -88 -72 0
-93 97 89 73 0
-97 -89 -73 0
-94 98 90 74 0
-98 -90 -74 0
-95 99 91 75 0
-99 -91 -75 0
-96 100 92 76 0
-100 -92 -76 0
-97 93 77 0
-98 94 78 0
-99 95 79 0
-100 96 80 0
